 $contrl units=angs local=boys runtyp=makefp                                    
   mult=1 icharg=0  coord=cart icut=11 $end                                 
 $system timlim=99999   mwords=200 $end                                         
 $scf soscf=.f. dirscf=.t. diis=.t. CONV=1.0d-06  $end                          
 $basis gbasis=n31  ngauss=6 ndfunc=1                                           
   diffs=.f. diffsp=.f. $end                                                    
 $DAMP ISCCHG=1 IFTTYP(1)=3,2 IFTFIX(1)=1,1 thrsh=500.0 $end                    


