 $CONTRL SCFTYP=RHF DFTTYP=B3LYP COORD=CART UNITS=ANGS
 ICHARG=0 MULT=1 COORD=UNIQUE MAXIT=150 RUNTYP=OPTIMIZE EXETYP=RUN $END
 $SYSTEM TIMLIM=360000 MWORDS=350  $END
 $BASIS GBASIS=N31 NGAUSS=6 NDFUNC=1 $END
 $SCF DIRSCF=.T. $END
 $trans dirtrf=.t. $end
 $STATPT OPTTOL=0.0001 NSTEP=300 $END
